30
9
7 2 20 8 5 0 23 15 6 13 19 21 4 16 29 24
18 5 23 17 29 1 10 11 14 9 0 20 13 12 2 27 21 28 26 7 3 16 19 15 25 22 8
3 23 16 7 8 26
9 2 6 15 27 8 0 12 25 21 20 22 24 13
29 15 20 14 11 0 10 24 3 18 6 22 7 16 5 8 25 23 26 4 1 12 27 28
20 21 29 28 6 22 25 19 2 27 13 14 9 4 0 3 15 17
6 0 17 28 24
6 7 0 16 3 19 29 26 27 18 20 21 17 8 24 22 1 11 4
10 20 12 17 6 27 18 25 14 19 15 2 13 8 5 4 16 9
